90 362538
4 78 42 1 11 59 20 36 45 44 6 29 60 46 31 26 72 79 27 88 5 56 39 86 75 52 47 24 57 12 7 33 53 90 77 30 58 83 51 70 68 38 64 9 2 21 32 85 76 55 48 15 69 22 28 74 82 61 19 54 3 34 81 62 41 37 66 13 63 49 14 89 8 35 25 23 87 50 65 40 80 10 84 17 73 71 16 67 43 18 
